8
0 56 111 478 457 498 110 46
56 0 242 207 0 308 223 322
111 242 0 610 306 379 225 2
478 207 610 0 60 74 482 693
457 0 306 60 0 79 346 355
498 308 379 74 79 0 189 59
110 223 225 482 346 189 0 373
46 322 2 693 355 59 373 0